<instance format="XCSP3" type="COP">
  <variables>
    <array id="x" size="[281]"> 0..280 </array>
  </variables>
  <constraints>
    <group>
      <intension> ne(%0,%1) </intension>
      <args> x[0] x[1] </args>
      <args> x[0] x[3] </args>
      <args> x[0] x[12] </args>
      <args> x[0] x[14] </args>
      <args> x[0] x[57] </args>
      <args> x[0] x[59] </args>
      <args> x[0] x[68] </args>
      <args> x[0] x[70] </args>
      <args> x[1] x[2] </args>
      <args> x[1] x[11] </args>
      <args> x[1] x[13] </args>
      <args> x[1] x[56] </args>
      <args> x[1] x[58] </args>
      <args> x[1] x[67] </args>
      <args> x[1] x[69] </args>
      <args> x[2] x[5] </args>
      <args> x[2] x[12] </args>
      <args> x[2] x[16] </args>
      <args> x[2] x[57] </args>
      <args> x[2] x[61] </args>
      <args> x[2] x[68] </args>
      <args> x[2] x[72] </args>
      <args> x[3] x[4] </args>
      <args> x[3] x[11] </args>
      <args> x[3] x[15] </args>
      <args> x[3] x[56] </args>
      <args> x[3] x[60] </args>
      <args> x[3] x[67] </args>
      <args> x[3] x[71] </args>
      <args> x[4] x[7] </args>
      <args> x[4] x[14] </args>
      <args> x[4] x[18] </args>
      <args> x[4] x[59] </args>
      <args> x[4] x[63] </args>
      <args> x[4] x[70] </args>
      <args> x[4] x[74] </args>
      <args> x[5] x[6] </args>
      <args> x[5] x[13] </args>
      <args> x[5] x[17] </args>
      <args> x[5] x[58] </args>
      <args> x[5] x[62] </args>
      <args> x[5] x[69] </args>
      <args> x[5] x[73] </args>
      <args> x[6] x[9] </args>
      <args> x[6] x[16] </args>
      <args> x[6] x[20] </args>
      <args> x[6] x[61] </args>
      <args> x[6] x[65] </args>
      <args> x[6] x[72] </args>
      <args> x[6] x[76] </args>
      <args> x[7] x[8] </args>
      <args> x[7] x[15] </args>
      <args> x[7] x[19] </args>
      <args> x[7] x[60] </args>
      <args> x[7] x[64] </args>
      <args> x[7] x[71] </args>
      <args> x[7] x[75] </args>
      <args> x[8] x[10] </args>
      <args> x[8] x[18] </args>
      <args> x[8] x[21] </args>
      <args> x[8] x[63] </args>
      <args> x[8] x[66] </args>
      <args> x[8] x[74] </args>
      <args> x[8] x[77] </args>
      <args> x[9] x[10] </args>
      <args> x[9] x[17] </args>
      <args> x[9] x[21] </args>
      <args> x[9] x[62] </args>
      <args> x[9] x[66] </args>
      <args> x[9] x[73] </args>
      <args> x[9] x[77] </args>
      <args> x[10] x[19] </args>
      <args> x[10] x[20] </args>
      <args> x[10] x[64] </args>
      <args> x[10] x[65] </args>
      <args> x[10] x[75] </args>
      <args> x[10] x[76] </args>
      <args> x[11] x[23] </args>
      <args> x[11] x[25] </args>
      <args> x[11] x[57] </args>
      <args> x[11] x[59] </args>
      <args> x[11] x[79] </args>
      <args> x[11] x[81] </args>
      <args> x[12] x[22] </args>
      <args> x[12] x[24] </args>
      <args> x[12] x[56] </args>
      <args> x[12] x[58] </args>
      <args> x[12] x[78] </args>
      <args> x[12] x[80] </args>
      <args> x[13] x[23] </args>
      <args> x[13] x[27] </args>
      <args> x[13] x[57] </args>
      <args> x[13] x[61] </args>
      <args> x[13] x[79] </args>
      <args> x[13] x[83] </args>
      <args> x[14] x[22] </args>
      <args> x[14] x[26] </args>
      <args> x[14] x[56] </args>
      <args> x[14] x[60] </args>
      <args> x[14] x[78] </args>
      <args> x[14] x[82] </args>
      <args> x[15] x[25] </args>
      <args> x[15] x[29] </args>
      <args> x[15] x[59] </args>
      <args> x[15] x[63] </args>
      <args> x[15] x[81] </args>
      <args> x[15] x[85] </args>
      <args> x[16] x[24] </args>
      <args> x[16] x[28] </args>
      <args> x[16] x[58] </args>
      <args> x[16] x[62] </args>
      <args> x[16] x[80] </args>
      <args> x[16] x[84] </args>
      <args> x[17] x[27] </args>
      <args> x[17] x[31] </args>
      <args> x[17] x[61] </args>
      <args> x[17] x[65] </args>
      <args> x[17] x[83] </args>
      <args> x[17] x[87] </args>
      <args> x[18] x[26] </args>
      <args> x[18] x[30] </args>
      <args> x[18] x[60] </args>
      <args> x[18] x[64] </args>
      <args> x[18] x[82] </args>
      <args> x[18] x[86] </args>
      <args> x[19] x[29] </args>
      <args> x[19] x[32] </args>
      <args> x[19] x[63] </args>
      <args> x[19] x[66] </args>
      <args> x[19] x[85] </args>
      <args> x[19] x[88] </args>
      <args> x[20] x[28] </args>
      <args> x[20] x[32] </args>
      <args> x[20] x[62] </args>
      <args> x[20] x[66] </args>
      <args> x[20] x[84] </args>
      <args> x[20] x[88] </args>
      <args> x[21] x[30] </args>
      <args> x[21] x[31] </args>
      <args> x[21] x[64] </args>
      <args> x[21] x[65] </args>
      <args> x[21] x[86] </args>
      <args> x[21] x[87] </args>
      <args> x[22] x[34] </args>
      <args> x[22] x[36] </args>
      <args> x[22] x[68] </args>
      <args> x[22] x[70] </args>
      <args> x[22] x[90] </args>
      <args> x[22] x[92] </args>
      <args> x[23] x[33] </args>
      <args> x[23] x[35] </args>
      <args> x[23] x[67] </args>
      <args> x[23] x[69] </args>
      <args> x[23] x[89] </args>
      <args> x[23] x[91] </args>
      <args> x[24] x[34] </args>
      <args> x[24] x[38] </args>
      <args> x[24] x[68] </args>
      <args> x[24] x[72] </args>
      <args> x[24] x[90] </args>
      <args> x[24] x[94] </args>
      <args> x[25] x[33] </args>
      <args> x[25] x[37] </args>
      <args> x[25] x[67] </args>
      <args> x[25] x[71] </args>
      <args> x[25] x[89] </args>
      <args> x[25] x[93] </args>
      <args> x[26] x[36] </args>
      <args> x[26] x[40] </args>
      <args> x[26] x[70] </args>
      <args> x[26] x[74] </args>
      <args> x[26] x[92] </args>
      <args> x[26] x[96] </args>
      <args> x[27] x[35] </args>
      <args> x[27] x[39] </args>
      <args> x[27] x[69] </args>
      <args> x[27] x[73] </args>
      <args> x[27] x[91] </args>
      <args> x[27] x[95] </args>
      <args> x[28] x[38] </args>
      <args> x[28] x[42] </args>
      <args> x[28] x[72] </args>
      <args> x[28] x[76] </args>
      <args> x[28] x[94] </args>
      <args> x[28] x[98] </args>
      <args> x[29] x[37] </args>
      <args> x[29] x[41] </args>
      <args> x[29] x[71] </args>
      <args> x[29] x[75] </args>
      <args> x[29] x[93] </args>
      <args> x[29] x[97] </args>
      <args> x[30] x[40] </args>
      <args> x[30] x[43] </args>
      <args> x[30] x[74] </args>
      <args> x[30] x[77] </args>
      <args> x[30] x[96] </args>
      <args> x[30] x[99] </args>
      <args> x[31] x[39] </args>
      <args> x[31] x[43] </args>
      <args> x[31] x[73] </args>
      <args> x[31] x[77] </args>
      <args> x[31] x[95] </args>
      <args> x[31] x[99] </args>
      <args> x[32] x[41] </args>
      <args> x[32] x[42] </args>
      <args> x[32] x[75] </args>
      <args> x[32] x[76] </args>
      <args> x[32] x[97] </args>
      <args> x[32] x[98] </args>
      <args> x[33] x[45] </args>
      <args> x[33] x[47] </args>
      <args> x[33] x[79] </args>
      <args> x[33] x[81] </args>
      <args> x[33] x[101] </args>
      <args> x[33] x[103] </args>
      <args> x[34] x[44] </args>
      <args> x[34] x[46] </args>
      <args> x[34] x[78] </args>
      <args> x[34] x[80] </args>
      <args> x[34] x[100] </args>
      <args> x[34] x[102] </args>
      <args> x[35] x[45] </args>
      <args> x[35] x[49] </args>
      <args> x[35] x[79] </args>
      <args> x[35] x[83] </args>
      <args> x[35] x[101] </args>
      <args> x[35] x[105] </args>
      <args> x[36] x[44] </args>
      <args> x[36] x[48] </args>
      <args> x[36] x[78] </args>
      <args> x[36] x[82] </args>
      <args> x[36] x[100] </args>
      <args> x[36] x[104] </args>
      <args> x[37] x[47] </args>
      <args> x[37] x[51] </args>
      <args> x[37] x[81] </args>
      <args> x[37] x[85] </args>
      <args> x[37] x[103] </args>
      <args> x[37] x[107] </args>
      <args> x[38] x[46] </args>
      <args> x[38] x[50] </args>
      <args> x[38] x[80] </args>
      <args> x[38] x[84] </args>
      <args> x[38] x[102] </args>
      <args> x[38] x[106] </args>
      <args> x[39] x[49] </args>
      <args> x[39] x[53] </args>
      <args> x[39] x[83] </args>
      <args> x[39] x[87] </args>
      <args> x[39] x[105] </args>
      <args> x[39] x[109] </args>
      <args> x[40] x[48] </args>
      <args> x[40] x[52] </args>
      <args> x[40] x[82] </args>
      <args> x[40] x[86] </args>
      <args> x[40] x[104] </args>
      <args> x[40] x[108] </args>
      <args> x[41] x[51] </args>
      <args> x[41] x[54] </args>
      <args> x[41] x[85] </args>
      <args> x[41] x[88] </args>
      <args> x[41] x[107] </args>
      <args> x[41] x[110] </args>
      <args> x[42] x[50] </args>
      <args> x[42] x[54] </args>
      <args> x[42] x[84] </args>
      <args> x[42] x[88] </args>
      <args> x[42] x[106] </args>
      <args> x[42] x[110] </args>
      <args> x[43] x[52] </args>
      <args> x[43] x[53] </args>
      <args> x[43] x[86] </args>
      <args> x[43] x[87] </args>
      <args> x[43] x[108] </args>
      <args> x[43] x[109] </args>
      <args> x[44] x[55] </args>
      <args> x[44] x[90] </args>
      <args> x[44] x[92] </args>
      <args> x[44] x[111] </args>
      <args> x[45] x[55] </args>
      <args> x[45] x[89] </args>
      <args> x[45] x[91] </args>
      <args> x[45] x[111] </args>
      <args> x[46] x[55] </args>
      <args> x[46] x[90] </args>
      <args> x[46] x[94] </args>
      <args> x[46] x[111] </args>
      <args> x[47] x[55] </args>
      <args> x[47] x[89] </args>
      <args> x[47] x[93] </args>
      <args> x[47] x[111] </args>
      <args> x[48] x[55] </args>
      <args> x[48] x[92] </args>
      <args> x[48] x[96] </args>
      <args> x[48] x[111] </args>
      <args> x[49] x[55] </args>
      <args> x[49] x[91] </args>
      <args> x[49] x[95] </args>
      <args> x[49] x[111] </args>
      <args> x[50] x[55] </args>
      <args> x[50] x[94] </args>
      <args> x[50] x[98] </args>
      <args> x[50] x[111] </args>
      <args> x[51] x[55] </args>
      <args> x[51] x[93] </args>
      <args> x[51] x[97] </args>
      <args> x[51] x[111] </args>
      <args> x[52] x[55] </args>
      <args> x[52] x[96] </args>
      <args> x[52] x[99] </args>
      <args> x[52] x[111] </args>
      <args> x[53] x[55] </args>
      <args> x[53] x[95] </args>
      <args> x[53] x[99] </args>
      <args> x[53] x[111] </args>
      <args> x[54] x[55] </args>
      <args> x[54] x[97] </args>
      <args> x[54] x[98] </args>
      <args> x[54] x[111] </args>
      <args> x[55] x[100] </args>
      <args> x[55] x[101] </args>
      <args> x[55] x[102] </args>
      <args> x[55] x[103] </args>
      <args> x[55] x[104] </args>
      <args> x[55] x[105] </args>
      <args> x[55] x[106] </args>
      <args> x[55] x[107] </args>
      <args> x[55] x[108] </args>
      <args> x[55] x[109] </args>
      <args> x[55] x[110] </args>
      <args> x[56] x[113] </args>
      <args> x[56] x[115] </args>
      <args> x[56] x[124] </args>
      <args> x[56] x[126] </args>
      <args> x[57] x[112] </args>
      <args> x[57] x[114] </args>
      <args> x[57] x[123] </args>
      <args> x[57] x[125] </args>
      <args> x[58] x[113] </args>
      <args> x[58] x[117] </args>
      <args> x[58] x[124] </args>
      <args> x[58] x[128] </args>
      <args> x[59] x[112] </args>
      <args> x[59] x[116] </args>
      <args> x[59] x[123] </args>
      <args> x[59] x[127] </args>
      <args> x[60] x[115] </args>
      <args> x[60] x[119] </args>
      <args> x[60] x[126] </args>
      <args> x[60] x[130] </args>
      <args> x[61] x[114] </args>
      <args> x[61] x[118] </args>
      <args> x[61] x[125] </args>
      <args> x[61] x[129] </args>
      <args> x[62] x[117] </args>
      <args> x[62] x[121] </args>
      <args> x[62] x[128] </args>
      <args> x[62] x[132] </args>
      <args> x[63] x[116] </args>
      <args> x[63] x[120] </args>
      <args> x[63] x[127] </args>
      <args> x[63] x[131] </args>
      <args> x[64] x[119] </args>
      <args> x[64] x[122] </args>
      <args> x[64] x[130] </args>
      <args> x[64] x[133] </args>
      <args> x[65] x[118] </args>
      <args> x[65] x[122] </args>
      <args> x[65] x[129] </args>
      <args> x[65] x[133] </args>
      <args> x[66] x[120] </args>
      <args> x[66] x[121] </args>
      <args> x[66] x[131] </args>
      <args> x[66] x[132] </args>
      <args> x[67] x[113] </args>
      <args> x[67] x[115] </args>
      <args> x[67] x[135] </args>
      <args> x[67] x[137] </args>
      <args> x[68] x[112] </args>
      <args> x[68] x[114] </args>
      <args> x[68] x[134] </args>
      <args> x[68] x[136] </args>
      <args> x[69] x[113] </args>
      <args> x[69] x[117] </args>
      <args> x[69] x[135] </args>
      <args> x[69] x[139] </args>
      <args> x[70] x[112] </args>
      <args> x[70] x[116] </args>
      <args> x[70] x[134] </args>
      <args> x[70] x[138] </args>
      <args> x[71] x[115] </args>
      <args> x[71] x[119] </args>
      <args> x[71] x[137] </args>
      <args> x[71] x[141] </args>
      <args> x[72] x[114] </args>
      <args> x[72] x[118] </args>
      <args> x[72] x[136] </args>
      <args> x[72] x[140] </args>
      <args> x[73] x[117] </args>
      <args> x[73] x[121] </args>
      <args> x[73] x[139] </args>
      <args> x[73] x[143] </args>
      <args> x[74] x[116] </args>
      <args> x[74] x[120] </args>
      <args> x[74] x[138] </args>
      <args> x[74] x[142] </args>
      <args> x[75] x[119] </args>
      <args> x[75] x[122] </args>
      <args> x[75] x[141] </args>
      <args> x[75] x[144] </args>
      <args> x[76] x[118] </args>
      <args> x[76] x[122] </args>
      <args> x[76] x[140] </args>
      <args> x[76] x[144] </args>
      <args> x[77] x[120] </args>
      <args> x[77] x[121] </args>
      <args> x[77] x[142] </args>
      <args> x[77] x[143] </args>
      <args> x[78] x[124] </args>
      <args> x[78] x[126] </args>
      <args> x[78] x[146] </args>
      <args> x[78] x[148] </args>
      <args> x[79] x[123] </args>
      <args> x[79] x[125] </args>
      <args> x[79] x[145] </args>
      <args> x[79] x[147] </args>
      <args> x[80] x[124] </args>
      <args> x[80] x[128] </args>
      <args> x[80] x[146] </args>
      <args> x[80] x[150] </args>
      <args> x[81] x[123] </args>
      <args> x[81] x[127] </args>
      <args> x[81] x[145] </args>
      <args> x[81] x[149] </args>
      <args> x[82] x[126] </args>
      <args> x[82] x[130] </args>
      <args> x[82] x[148] </args>
      <args> x[82] x[152] </args>
      <args> x[83] x[125] </args>
      <args> x[83] x[129] </args>
      <args> x[83] x[147] </args>
      <args> x[83] x[151] </args>
      <args> x[84] x[128] </args>
      <args> x[84] x[132] </args>
      <args> x[84] x[150] </args>
      <args> x[84] x[154] </args>
      <args> x[85] x[127] </args>
      <args> x[85] x[131] </args>
      <args> x[85] x[149] </args>
      <args> x[85] x[153] </args>
      <args> x[86] x[130] </args>
      <args> x[86] x[133] </args>
      <args> x[86] x[152] </args>
      <args> x[86] x[155] </args>
      <args> x[87] x[129] </args>
      <args> x[87] x[133] </args>
      <args> x[87] x[151] </args>
      <args> x[87] x[155] </args>
      <args> x[88] x[131] </args>
      <args> x[88] x[132] </args>
      <args> x[88] x[153] </args>
      <args> x[88] x[154] </args>
      <args> x[89] x[135] </args>
      <args> x[89] x[137] </args>
      <args> x[89] x[157] </args>
      <args> x[89] x[159] </args>
      <args> x[90] x[134] </args>
      <args> x[90] x[136] </args>
      <args> x[90] x[156] </args>
      <args> x[90] x[158] </args>
      <args> x[91] x[135] </args>
      <args> x[91] x[139] </args>
      <args> x[91] x[157] </args>
      <args> x[91] x[161] </args>
      <args> x[92] x[134] </args>
      <args> x[92] x[138] </args>
      <args> x[92] x[156] </args>
      <args> x[92] x[160] </args>
      <args> x[93] x[137] </args>
      <args> x[93] x[141] </args>
      <args> x[93] x[159] </args>
      <args> x[93] x[163] </args>
      <args> x[94] x[136] </args>
      <args> x[94] x[140] </args>
      <args> x[94] x[158] </args>
      <args> x[94] x[162] </args>
      <args> x[95] x[139] </args>
      <args> x[95] x[143] </args>
      <args> x[95] x[161] </args>
      <args> x[95] x[165] </args>
      <args> x[96] x[138] </args>
      <args> x[96] x[142] </args>
      <args> x[96] x[160] </args>
      <args> x[96] x[164] </args>
      <args> x[97] x[141] </args>
      <args> x[97] x[144] </args>
      <args> x[97] x[163] </args>
      <args> x[97] x[166] </args>
      <args> x[98] x[140] </args>
      <args> x[98] x[144] </args>
      <args> x[98] x[162] </args>
      <args> x[98] x[166] </args>
      <args> x[99] x[142] </args>
      <args> x[99] x[143] </args>
      <args> x[99] x[164] </args>
      <args> x[99] x[165] </args>
      <args> x[100] x[146] </args>
      <args> x[100] x[148] </args>
      <args> x[100] x[167] </args>
      <args> x[101] x[145] </args>
      <args> x[101] x[147] </args>
      <args> x[101] x[167] </args>
      <args> x[102] x[146] </args>
      <args> x[102] x[150] </args>
      <args> x[102] x[167] </args>
      <args> x[103] x[145] </args>
      <args> x[103] x[149] </args>
      <args> x[103] x[167] </args>
      <args> x[104] x[148] </args>
      <args> x[104] x[152] </args>
      <args> x[104] x[167] </args>
      <args> x[105] x[147] </args>
      <args> x[105] x[151] </args>
      <args> x[105] x[167] </args>
      <args> x[106] x[150] </args>
      <args> x[106] x[154] </args>
      <args> x[106] x[167] </args>
      <args> x[107] x[149] </args>
      <args> x[107] x[153] </args>
      <args> x[107] x[167] </args>
      <args> x[108] x[152] </args>
      <args> x[108] x[155] </args>
      <args> x[108] x[167] </args>
      <args> x[109] x[151] </args>
      <args> x[109] x[155] </args>
      <args> x[109] x[167] </args>
      <args> x[110] x[153] </args>
      <args> x[110] x[154] </args>
      <args> x[110] x[167] </args>
      <args> x[111] x[156] </args>
      <args> x[111] x[157] </args>
      <args> x[111] x[158] </args>
      <args> x[111] x[159] </args>
      <args> x[111] x[160] </args>
      <args> x[111] x[161] </args>
      <args> x[111] x[162] </args>
      <args> x[111] x[163] </args>
      <args> x[111] x[164] </args>
      <args> x[111] x[165] </args>
      <args> x[111] x[166] </args>
      <args> x[112] x[169] </args>
      <args> x[112] x[171] </args>
      <args> x[112] x[180] </args>
      <args> x[112] x[182] </args>
      <args> x[113] x[168] </args>
      <args> x[113] x[170] </args>
      <args> x[113] x[179] </args>
      <args> x[113] x[181] </args>
      <args> x[114] x[169] </args>
      <args> x[114] x[173] </args>
      <args> x[114] x[180] </args>
      <args> x[114] x[184] </args>
      <args> x[115] x[168] </args>
      <args> x[115] x[172] </args>
      <args> x[115] x[179] </args>
      <args> x[115] x[183] </args>
      <args> x[116] x[171] </args>
      <args> x[116] x[175] </args>
      <args> x[116] x[182] </args>
      <args> x[116] x[186] </args>
      <args> x[117] x[170] </args>
      <args> x[117] x[174] </args>
      <args> x[117] x[181] </args>
      <args> x[117] x[185] </args>
      <args> x[118] x[173] </args>
      <args> x[118] x[177] </args>
      <args> x[118] x[184] </args>
      <args> x[118] x[188] </args>
      <args> x[119] x[172] </args>
      <args> x[119] x[176] </args>
      <args> x[119] x[183] </args>
      <args> x[119] x[187] </args>
      <args> x[120] x[175] </args>
      <args> x[120] x[178] </args>
      <args> x[120] x[186] </args>
      <args> x[120] x[189] </args>
      <args> x[121] x[174] </args>
      <args> x[121] x[178] </args>
      <args> x[121] x[185] </args>
      <args> x[121] x[189] </args>
      <args> x[122] x[176] </args>
      <args> x[122] x[177] </args>
      <args> x[122] x[187] </args>
      <args> x[122] x[188] </args>
      <args> x[123] x[169] </args>
      <args> x[123] x[171] </args>
      <args> x[123] x[191] </args>
      <args> x[123] x[193] </args>
      <args> x[124] x[168] </args>
      <args> x[124] x[170] </args>
      <args> x[124] x[190] </args>
      <args> x[124] x[192] </args>
      <args> x[125] x[169] </args>
      <args> x[125] x[173] </args>
      <args> x[125] x[191] </args>
      <args> x[125] x[195] </args>
      <args> x[126] x[168] </args>
      <args> x[126] x[172] </args>
      <args> x[126] x[190] </args>
      <args> x[126] x[194] </args>
      <args> x[127] x[171] </args>
      <args> x[127] x[175] </args>
      <args> x[127] x[193] </args>
      <args> x[127] x[197] </args>
      <args> x[128] x[170] </args>
      <args> x[128] x[174] </args>
      <args> x[128] x[192] </args>
      <args> x[128] x[196] </args>
      <args> x[129] x[173] </args>
      <args> x[129] x[177] </args>
      <args> x[129] x[195] </args>
      <args> x[129] x[199] </args>
      <args> x[130] x[172] </args>
      <args> x[130] x[176] </args>
      <args> x[130] x[194] </args>
      <args> x[130] x[198] </args>
      <args> x[131] x[175] </args>
      <args> x[131] x[178] </args>
      <args> x[131] x[197] </args>
      <args> x[131] x[200] </args>
      <args> x[132] x[174] </args>
      <args> x[132] x[178] </args>
      <args> x[132] x[196] </args>
      <args> x[132] x[200] </args>
      <args> x[133] x[176] </args>
      <args> x[133] x[177] </args>
      <args> x[133] x[198] </args>
      <args> x[133] x[199] </args>
      <args> x[134] x[180] </args>
      <args> x[134] x[182] </args>
      <args> x[134] x[202] </args>
      <args> x[134] x[204] </args>
      <args> x[135] x[179] </args>
      <args> x[135] x[181] </args>
      <args> x[135] x[201] </args>
      <args> x[135] x[203] </args>
      <args> x[136] x[180] </args>
      <args> x[136] x[184] </args>
      <args> x[136] x[202] </args>
      <args> x[136] x[206] </args>
      <args> x[137] x[179] </args>
      <args> x[137] x[183] </args>
      <args> x[137] x[201] </args>
      <args> x[137] x[205] </args>
      <args> x[138] x[182] </args>
      <args> x[138] x[186] </args>
      <args> x[138] x[204] </args>
      <args> x[138] x[208] </args>
      <args> x[139] x[181] </args>
      <args> x[139] x[185] </args>
      <args> x[139] x[203] </args>
      <args> x[139] x[207] </args>
      <args> x[140] x[184] </args>
      <args> x[140] x[188] </args>
      <args> x[140] x[206] </args>
      <args> x[140] x[210] </args>
      <args> x[141] x[183] </args>
      <args> x[141] x[187] </args>
      <args> x[141] x[205] </args>
      <args> x[141] x[209] </args>
      <args> x[142] x[186] </args>
      <args> x[142] x[189] </args>
      <args> x[142] x[208] </args>
      <args> x[142] x[211] </args>
      <args> x[143] x[185] </args>
      <args> x[143] x[189] </args>
      <args> x[143] x[207] </args>
      <args> x[143] x[211] </args>
      <args> x[144] x[187] </args>
      <args> x[144] x[188] </args>
      <args> x[144] x[209] </args>
      <args> x[144] x[210] </args>
      <args> x[145] x[191] </args>
      <args> x[145] x[193] </args>
      <args> x[145] x[213] </args>
      <args> x[145] x[215] </args>
      <args> x[146] x[190] </args>
      <args> x[146] x[192] </args>
      <args> x[146] x[212] </args>
      <args> x[146] x[214] </args>
      <args> x[147] x[191] </args>
      <args> x[147] x[195] </args>
      <args> x[147] x[213] </args>
      <args> x[147] x[217] </args>
      <args> x[148] x[190] </args>
      <args> x[148] x[194] </args>
      <args> x[148] x[212] </args>
      <args> x[148] x[216] </args>
      <args> x[149] x[193] </args>
      <args> x[149] x[197] </args>
      <args> x[149] x[215] </args>
      <args> x[149] x[219] </args>
      <args> x[150] x[192] </args>
      <args> x[150] x[196] </args>
      <args> x[150] x[214] </args>
      <args> x[150] x[218] </args>
      <args> x[151] x[195] </args>
      <args> x[151] x[199] </args>
      <args> x[151] x[217] </args>
      <args> x[151] x[221] </args>
      <args> x[152] x[194] </args>
      <args> x[152] x[198] </args>
      <args> x[152] x[216] </args>
      <args> x[152] x[220] </args>
      <args> x[153] x[197] </args>
      <args> x[153] x[200] </args>
      <args> x[153] x[219] </args>
      <args> x[153] x[222] </args>
      <args> x[154] x[196] </args>
      <args> x[154] x[200] </args>
      <args> x[154] x[218] </args>
      <args> x[154] x[222] </args>
      <args> x[155] x[198] </args>
      <args> x[155] x[199] </args>
      <args> x[155] x[220] </args>
      <args> x[155] x[221] </args>
      <args> x[156] x[202] </args>
      <args> x[156] x[204] </args>
      <args> x[156] x[223] </args>
      <args> x[157] x[201] </args>
      <args> x[157] x[203] </args>
      <args> x[157] x[223] </args>
      <args> x[158] x[202] </args>
      <args> x[158] x[206] </args>
      <args> x[158] x[223] </args>
      <args> x[159] x[201] </args>
      <args> x[159] x[205] </args>
      <args> x[159] x[223] </args>
      <args> x[160] x[204] </args>
      <args> x[160] x[208] </args>
      <args> x[160] x[223] </args>
      <args> x[161] x[203] </args>
      <args> x[161] x[207] </args>
      <args> x[161] x[223] </args>
      <args> x[162] x[206] </args>
      <args> x[162] x[210] </args>
      <args> x[162] x[223] </args>
      <args> x[163] x[205] </args>
      <args> x[163] x[209] </args>
      <args> x[163] x[223] </args>
      <args> x[164] x[208] </args>
      <args> x[164] x[211] </args>
      <args> x[164] x[223] </args>
      <args> x[165] x[207] </args>
      <args> x[165] x[211] </args>
      <args> x[165] x[223] </args>
      <args> x[166] x[209] </args>
      <args> x[166] x[210] </args>
      <args> x[166] x[223] </args>
      <args> x[167] x[212] </args>
      <args> x[167] x[213] </args>
      <args> x[167] x[214] </args>
      <args> x[167] x[215] </args>
      <args> x[167] x[216] </args>
      <args> x[167] x[217] </args>
      <args> x[167] x[218] </args>
      <args> x[167] x[219] </args>
      <args> x[167] x[220] </args>
      <args> x[167] x[221] </args>
      <args> x[167] x[222] </args>
      <args> x[168] x[225] </args>
      <args> x[168] x[227] </args>
      <args> x[168] x[236] </args>
      <args> x[168] x[238] </args>
      <args> x[169] x[224] </args>
      <args> x[169] x[226] </args>
      <args> x[169] x[235] </args>
      <args> x[169] x[237] </args>
      <args> x[170] x[225] </args>
      <args> x[170] x[229] </args>
      <args> x[170] x[236] </args>
      <args> x[170] x[240] </args>
      <args> x[171] x[224] </args>
      <args> x[171] x[228] </args>
      <args> x[171] x[235] </args>
      <args> x[171] x[239] </args>
      <args> x[172] x[227] </args>
      <args> x[172] x[231] </args>
      <args> x[172] x[238] </args>
      <args> x[172] x[242] </args>
      <args> x[173] x[226] </args>
      <args> x[173] x[230] </args>
      <args> x[173] x[237] </args>
      <args> x[173] x[241] </args>
      <args> x[174] x[229] </args>
      <args> x[174] x[233] </args>
      <args> x[174] x[240] </args>
      <args> x[174] x[244] </args>
      <args> x[175] x[228] </args>
      <args> x[175] x[232] </args>
      <args> x[175] x[239] </args>
      <args> x[175] x[243] </args>
      <args> x[176] x[231] </args>
      <args> x[176] x[234] </args>
      <args> x[176] x[242] </args>
      <args> x[176] x[245] </args>
      <args> x[177] x[230] </args>
      <args> x[177] x[234] </args>
      <args> x[177] x[241] </args>
      <args> x[177] x[245] </args>
      <args> x[178] x[232] </args>
      <args> x[178] x[233] </args>
      <args> x[178] x[243] </args>
      <args> x[178] x[244] </args>
      <args> x[179] x[225] </args>
      <args> x[179] x[227] </args>
      <args> x[179] x[247] </args>
      <args> x[179] x[249] </args>
      <args> x[180] x[224] </args>
      <args> x[180] x[226] </args>
      <args> x[180] x[246] </args>
      <args> x[180] x[248] </args>
      <args> x[181] x[225] </args>
      <args> x[181] x[229] </args>
      <args> x[181] x[247] </args>
      <args> x[181] x[251] </args>
      <args> x[182] x[224] </args>
      <args> x[182] x[228] </args>
      <args> x[182] x[246] </args>
      <args> x[182] x[250] </args>
      <args> x[183] x[227] </args>
      <args> x[183] x[231] </args>
      <args> x[183] x[249] </args>
      <args> x[183] x[253] </args>
      <args> x[184] x[226] </args>
      <args> x[184] x[230] </args>
      <args> x[184] x[248] </args>
      <args> x[184] x[252] </args>
      <args> x[185] x[229] </args>
      <args> x[185] x[233] </args>
      <args> x[185] x[251] </args>
      <args> x[185] x[255] </args>
      <args> x[186] x[228] </args>
      <args> x[186] x[232] </args>
      <args> x[186] x[250] </args>
      <args> x[186] x[254] </args>
      <args> x[187] x[231] </args>
      <args> x[187] x[234] </args>
      <args> x[187] x[253] </args>
      <args> x[187] x[256] </args>
      <args> x[188] x[230] </args>
      <args> x[188] x[234] </args>
      <args> x[188] x[252] </args>
      <args> x[188] x[256] </args>
      <args> x[189] x[232] </args>
      <args> x[189] x[233] </args>
      <args> x[189] x[254] </args>
      <args> x[189] x[255] </args>
      <args> x[190] x[236] </args>
      <args> x[190] x[238] </args>
      <args> x[190] x[258] </args>
      <args> x[190] x[260] </args>
      <args> x[191] x[235] </args>
      <args> x[191] x[237] </args>
      <args> x[191] x[257] </args>
      <args> x[191] x[259] </args>
      <args> x[192] x[236] </args>
      <args> x[192] x[240] </args>
      <args> x[192] x[258] </args>
      <args> x[192] x[262] </args>
      <args> x[193] x[235] </args>
      <args> x[193] x[239] </args>
      <args> x[193] x[257] </args>
      <args> x[193] x[261] </args>
      <args> x[194] x[238] </args>
      <args> x[194] x[242] </args>
      <args> x[194] x[260] </args>
      <args> x[194] x[264] </args>
      <args> x[195] x[237] </args>
      <args> x[195] x[241] </args>
      <args> x[195] x[259] </args>
      <args> x[195] x[263] </args>
      <args> x[196] x[240] </args>
      <args> x[196] x[244] </args>
      <args> x[196] x[262] </args>
      <args> x[196] x[266] </args>
      <args> x[197] x[239] </args>
      <args> x[197] x[243] </args>
      <args> x[197] x[261] </args>
      <args> x[197] x[265] </args>
      <args> x[198] x[242] </args>
      <args> x[198] x[245] </args>
      <args> x[198] x[264] </args>
      <args> x[198] x[267] </args>
      <args> x[199] x[241] </args>
      <args> x[199] x[245] </args>
      <args> x[199] x[263] </args>
      <args> x[199] x[267] </args>
      <args> x[200] x[243] </args>
      <args> x[200] x[244] </args>
      <args> x[200] x[265] </args>
      <args> x[200] x[266] </args>
      <args> x[201] x[247] </args>
      <args> x[201] x[249] </args>
      <args> x[201] x[269] </args>
      <args> x[201] x[271] </args>
      <args> x[202] x[246] </args>
      <args> x[202] x[248] </args>
      <args> x[202] x[268] </args>
      <args> x[202] x[270] </args>
      <args> x[203] x[247] </args>
      <args> x[203] x[251] </args>
      <args> x[203] x[269] </args>
      <args> x[203] x[273] </args>
      <args> x[204] x[246] </args>
      <args> x[204] x[250] </args>
      <args> x[204] x[268] </args>
      <args> x[204] x[272] </args>
      <args> x[205] x[249] </args>
      <args> x[205] x[253] </args>
      <args> x[205] x[271] </args>
      <args> x[205] x[275] </args>
      <args> x[206] x[248] </args>
      <args> x[206] x[252] </args>
      <args> x[206] x[270] </args>
      <args> x[206] x[274] </args>
      <args> x[207] x[251] </args>
      <args> x[207] x[255] </args>
      <args> x[207] x[273] </args>
      <args> x[207] x[277] </args>
      <args> x[208] x[250] </args>
      <args> x[208] x[254] </args>
      <args> x[208] x[272] </args>
      <args> x[208] x[276] </args>
      <args> x[209] x[253] </args>
      <args> x[209] x[256] </args>
      <args> x[209] x[275] </args>
      <args> x[209] x[278] </args>
      <args> x[210] x[252] </args>
      <args> x[210] x[256] </args>
      <args> x[210] x[274] </args>
      <args> x[210] x[278] </args>
      <args> x[211] x[254] </args>
      <args> x[211] x[255] </args>
      <args> x[211] x[276] </args>
      <args> x[211] x[277] </args>
      <args> x[212] x[258] </args>
      <args> x[212] x[260] </args>
      <args> x[212] x[279] </args>
      <args> x[213] x[257] </args>
      <args> x[213] x[259] </args>
      <args> x[213] x[279] </args>
      <args> x[214] x[258] </args>
      <args> x[214] x[262] </args>
      <args> x[214] x[279] </args>
      <args> x[215] x[257] </args>
      <args> x[215] x[261] </args>
      <args> x[215] x[279] </args>
      <args> x[216] x[260] </args>
      <args> x[216] x[264] </args>
      <args> x[216] x[279] </args>
      <args> x[217] x[259] </args>
      <args> x[217] x[263] </args>
      <args> x[217] x[279] </args>
      <args> x[218] x[262] </args>
      <args> x[218] x[266] </args>
      <args> x[218] x[279] </args>
      <args> x[219] x[261] </args>
      <args> x[219] x[265] </args>
      <args> x[219] x[279] </args>
      <args> x[220] x[264] </args>
      <args> x[220] x[267] </args>
      <args> x[220] x[279] </args>
      <args> x[221] x[263] </args>
      <args> x[221] x[267] </args>
      <args> x[221] x[279] </args>
      <args> x[222] x[265] </args>
      <args> x[222] x[266] </args>
      <args> x[222] x[279] </args>
      <args> x[223] x[268] </args>
      <args> x[223] x[269] </args>
      <args> x[223] x[270] </args>
      <args> x[223] x[271] </args>
      <args> x[223] x[272] </args>
      <args> x[223] x[273] </args>
      <args> x[223] x[274] </args>
      <args> x[223] x[275] </args>
      <args> x[223] x[276] </args>
      <args> x[223] x[277] </args>
      <args> x[223] x[278] </args>
      <args> x[224] x[280] </args>
      <args> x[225] x[280] </args>
      <args> x[226] x[280] </args>
      <args> x[227] x[280] </args>
      <args> x[228] x[280] </args>
      <args> x[229] x[280] </args>
      <args> x[230] x[280] </args>
      <args> x[231] x[280] </args>
      <args> x[232] x[280] </args>
      <args> x[233] x[280] </args>
      <args> x[234] x[280] </args>
      <args> x[235] x[280] </args>
      <args> x[236] x[280] </args>
      <args> x[237] x[280] </args>
      <args> x[238] x[280] </args>
      <args> x[239] x[280] </args>
      <args> x[240] x[280] </args>
      <args> x[241] x[280] </args>
      <args> x[242] x[280] </args>
      <args> x[243] x[280] </args>
      <args> x[244] x[280] </args>
      <args> x[245] x[280] </args>
      <args> x[246] x[280] </args>
      <args> x[247] x[280] </args>
      <args> x[248] x[280] </args>
      <args> x[249] x[280] </args>
      <args> x[250] x[280] </args>
      <args> x[251] x[280] </args>
      <args> x[252] x[280] </args>
      <args> x[253] x[280] </args>
      <args> x[254] x[280] </args>
      <args> x[255] x[280] </args>
      <args> x[256] x[280] </args>
      <args> x[257] x[280] </args>
      <args> x[258] x[280] </args>
      <args> x[259] x[280] </args>
      <args> x[260] x[280] </args>
      <args> x[261] x[280] </args>
      <args> x[262] x[280] </args>
      <args> x[263] x[280] </args>
      <args> x[264] x[280] </args>
      <args> x[265] x[280] </args>
      <args> x[266] x[280] </args>
      <args> x[267] x[280] </args>
      <args> x[268] x[280] </args>
      <args> x[269] x[280] </args>
      <args> x[270] x[280] </args>
      <args> x[271] x[280] </args>
      <args> x[272] x[280] </args>
      <args> x[273] x[280] </args>
      <args> x[274] x[280] </args>
      <args> x[275] x[280] </args>
      <args> x[276] x[280] </args>
      <args> x[277] x[280] </args>
      <args> x[278] x[280] </args>
      <args> x[279] x[280] </args>
    </group>
  </constraints>
  <objectives>
    <minimize type="maximum"> x[] </minimize>
  </objectives>
</instance>
